128 129 130 131 132 133 134 137 138 139 140 141 136 135 144 143 142 151 150 149 152 148 147 146 145 158 157 159 156 155 153 154 160 161 162 168 163 167 166 164 165 203 204 202 201 200 199 198 205 206 207 208 209 210 211 212 213 214 215 216 217 223 224 222 221 220 218 219 193 194 195 196 197 184 185 183 182 186 227 189 190 192 191 226 225 228 229 230 231 233 232 234 235 236 237 240 239 238 246 247 245 244 243 242 248 249 250 251 252 254 253 255 256 257 260 261 259 258 262 263 264 265 266 298 299 300 241 301 302 508 507 506 307 303 304 306 305 318 317 319 320 321 297 267 271 272 269 268 270 296 295 294 293 291 292 273 274 275 290 289 288 276 277 278 279 282 281 280 287 286 285 284 283 334 335 336 337 338 339 333 332 331 330 340 341 344 343 342 366 329 328 327 326 325 324 323 322 373 374 315 314 316 313 312 311 310 309 308 505 504 503 502 451 501 498 500 499 452 453 440 441 450 449 448 447 446 442 443 444 445 381 380 379 378 377 376 375 395 396 371 372 370 369 368 367 365 364 363 362 346 345 347 348 349 350 351 352 353 354 355 357 358 359 361 360 401 402 403 400 399 398 397 394 393 391 392 390 389 388 387 408 407 406 405 404 409 385 386 382 383 384 410 418 411 412 356 413 414 415 416 417 419 420 421 422 423 424 425 426 427 428 429 431 430 432 433 434 435 437 438 436 439 454 455 456 457 458 459 460 461 462 463 464 465 466 467 468 571 572 573 0 1 2 3 4 5 6 7 8 9 10 17 18 16 15 14 11 13 12 23 22 31 30 32 36 37 38 35 33 34 29 28 27 26 25 24 21 20 19 568 569 570 474 473 472 471 469 470 496 497 495 494 518 519 520 517 516 515 514 513 509 510 511 512 527 528 529 530 531 532 533 489 490 491 526 523 522 521 524 525 492 493 486 488 534 487 535 536 484 485 483 482 481 480 479 478 477 476 475 567 566 565 564 563 562 561 560 549 548 545 546 547 544 543 541 542 107 109 108 173 174 172 175 176 540 539 537 538 188 187 178 177 179 181 180 169 171 170 110 111 112 113 114 115 116 117 106 105 104 103 118 119 120 121 122 123 71 72 73 74 75 76 62 78 77 88 89 90 87 86 85 91 92 93 94 95 96 97 98 99 100 102 101 551 550 559 558 557 556 552 553 554 555 46 45 44 41 40 39 42 43 47 48 49 55 56 53 54 52 50 51 84 83 82 57 58 59 81 80 79 61 60 63 64 65 66 67 68 70 69 124 125 126 127